%NProcShared=2
%Mem=2GB
%Chk=mcsome_fast_sp.chk
#P HF/3-21G SP Pop=(NBO,Full) Guess=Huckel NoSymm

MCSOMe fast single point smoke test. Example geometry only.

0 1
C       -3.760000    0.000000    0.000000
C       -2.430000    0.000000    0.000000
C       -1.620000    1.240000    0.000000
C       -0.190000    1.170000    0.000000
C        0.610000    2.410000    0.000000
C        2.040000    2.330000    0.000000
Si       3.170000    0.800000    0.000000
C        4.900000    1.420000    0.000000
O        2.350000   -0.590000    0.000000
C        2.990000   -1.850000    0.000000
Cl       4.270000   -0.740000    0.000000
H       -4.300000    0.930000    0.000000
H       -4.300000   -0.930000    0.000000
H       -1.880000   -0.940000    0.000000
H       -2.150000    2.180000    0.000000
H       -1.970000    1.260000    0.900000
H        0.170000    0.240000    0.000000
H        0.160000    3.350000    0.000000
H        0.970000    2.430000    0.900000
H        2.500000    3.290000    0.000000
H        2.390000    2.350000    0.900000
H        5.510000    0.510000    0.000000
H        5.020000    2.010000    0.910000
H        5.020000    2.010000   -0.910000
H        4.070000   -1.870000    0.000000
H        2.320000   -2.710000    0.000000
H        3.610000   -1.950000    0.900000
H        3.610000   -1.950000   -0.900000

