%NProcShared=2
%Mem=2GB
%Chk=water_opt_freq_nbo.chk
#P B3LYP/6-31G(d) Opt Freq Pop=(NBO,Full) NoSymm

Water opt freq NBO smoke test for SiO Catalyst Quantum Studio

0 1
O        0.000000    0.000000    0.000000
H        0.758602    0.000000    0.504284
H       -0.758602    0.000000    0.504284

